========================================================== 
File name: C:\DEGR\assets\definitions\MSRCPSP_Gen\500_10_512_5_C.def
Creation date: Sat May 06 09:15:11 CEST 2023
Website: http://imopse.ii.pwr.edu.pl/ 
Reference: 
Myszkowski P. B., Skowronski M. E., Olech L., Oslizlo K., 
Hybrid Ant Colony Optimization in solving Multi-Skill Resource-Constrained Project Scheduling Problem, 
Soft Computing, DOI: DOI 10.1007/s00500-014-1455-x 
========================================================== 
General characteristics: 
Tasks: 500
Resources: 10
Precedence relations: 508
Number of skill types: 5
========================================================== 
ResourceID 	 Salary 	 Skills 
1	 	 	38.6	 	 Q1: 0 	  Q3: 0 	  Q0: 1 	 
2	 	 	37.8	 	 Q4: 0 	  Q2: 3 	 
3	 	 	40.6	 	 Q2: 0 	  Q0: 3 	  Q3: 1 	 
4	 	 	86.8	 	 Q2: 3 	  Q3: 2 	  Q4: 3 	 
5	 	 	48.1	 	 Q0: 2 	  Q1: 3 	  Q3: 3 	  Q2: 1 	 
6	 	 	90.0	 	 Q2: 0 	  Q1: 2 	  Q3: 0 	  Q4: 0 	 
7	 	 	50.0	 	 Q2: 0 	  Q4: 2 	  Q0: 1 	 
8	 	 	10.6	 	 Q0: 0 	  Q3: 1 	 
9	 	 	30.1	 	 Q1: 0 	 
10	 	 	50.5	 	 Q3: 0 	  Q0: 3 	  Q1: 3 	 
========================================================== 
TaskID 	 Duration 	 Skill 	 Predecessor IDs 
1	37	Q4:	2
2	10	Q3:	2
3	25	Q3:	1
4	25	Q0:	2
5	17	Q2:	3
6	32	Q2:	1
7	33	Q1:	3
8	10	Q3:	1
9	35	Q3:	1
10	17	Q0:	2
11	36	Q3:	3
12	40	Q3:	1
13	15	Q4:	3
14	34	Q3:	0
15	37	Q2:	1
16	33	Q3:	0	1
17	15	Q3:	0
18	26	Q1:	3
19	13	Q4:	0
20	20	Q4:	3
21	19	Q1:	3
22	31	Q3:	3
23	14	Q4:	0
24	17	Q3:	2
25	30	Q1:	2
26	15	Q2:	0
27	32	Q2:	0
28	40	Q3:	2
29	34	Q3:	1
30	30	Q2:	1
31	23	Q3:	2
32	20	Q1:	2
33	40	Q0:	1	24
34	29	Q2:	3
35	13	Q3:	3
36	19	Q0:	0
37	25	Q4:	3
38	12	Q0:	1	37
39	14	Q1:	3
40	25	Q0:	1
41	22	Q4:	3
42	24	Q4:	0
43	31	Q2:	1
44	21	Q3:	1
45	25	Q4:	0
46	23	Q1:	0
47	36	Q0:	2
48	24	Q4:	3
49	16	Q3:	1
50	32	Q2:	1
51	19	Q4:	2
52	21	Q1:	0
53	16	Q3:	2
54	27	Q4:	3
55	31	Q2:	0	4
56	22	Q0:	1	11
57	11	Q0:	2
58	16	Q4:	2
59	17	Q3:	0	19
60	35	Q2:	0
61	36	Q2:	3	37
62	30	Q0:	1	35
63	23	Q3:	1
64	20	Q1:	2	24
65	23	Q1:	2	1
66	30	Q0:	2	63
67	24	Q4:	0
68	26	Q0:	3
69	12	Q1:	0
70	22	Q0:	0
71	37	Q3:	0
72	38	Q3:	0
73	34	Q0:	3	70
74	29	Q4:	2
75	9	Q3:	0
76	12	Q0:	1
77	30	Q4:	3	6
78	36	Q1:	0
79	28	Q2:	1
80	14	Q2:	3
81	13	Q0:	3	21
82	17	Q3:	0	74
83	34	Q0:	1
84	36	Q0:	3	62
85	39	Q1:	3
86	20	Q0:	3	63
87	21	Q4:	0
88	22	Q3:	1
89	30	Q3:	2
90	28	Q4:	0	70
91	33	Q4:	0	31	20
92	31	Q2:	3	49
93	11	Q0:	1	20	73
94	31	Q2:	3
95	21	Q1:	2
96	23	Q4:	3
97	22	Q0:	1
98	11	Q0:	1
99	28	Q3:	2
100	37	Q0:	3
101	37	Q3:	0	51
102	33	Q0:	1	87
103	34	Q0:	2
104	28	Q3:	0
105	24	Q0:	1	60	80
106	35	Q4:	0
107	23	Q0:	2	60	15
108	34	Q3:	1
109	19	Q0:	2	65
110	30	Q1:	3	99
111	26	Q1:	2	15
112	9	Q0:	0	2	7
113	20	Q2:	1	93	7
114	27	Q0:	3	40
115	39	Q4:	3	77
116	26	Q2:	0
117	30	Q0:	3
118	29	Q3:	3
119	35	Q4:	0	81
120	18	Q3:	2
121	35	Q1:	2	99
122	29	Q0:	1
123	31	Q0:	0
124	23	Q2:	1	53
125	34	Q3:	2	79
126	12	Q0:	2	36
127	34	Q3:	0	17
128	32	Q2:	0	118
129	12	Q4:	3
130	27	Q2:	0
131	28	Q0:	1	2
132	40	Q0:	1	41	97
133	21	Q1:	3	4
134	25	Q1:	0	29
135	28	Q4:	2	79
136	11	Q3:	0
137	11	Q4:	3	56	78
138	15	Q1:	2	107
139	22	Q0:	0
140	11	Q3:	1	76
141	11	Q4:	0	98
142	31	Q0:	3	140	46
143	11	Q0:	3
144	40	Q0:	2
145	12	Q4:	0
146	10	Q1:	2
147	28	Q1:	3
148	18	Q4:	3
149	16	Q4:	0	58
150	32	Q0:	2	48
151	34	Q1:	0
152	13	Q2:	3
153	34	Q4:	3
154	31	Q3:	3	138
155	9	Q3:	1
156	18	Q0:	3
157	28	Q0:	1
158	27	Q1:	2
159	13	Q4:	0	141
160	23	Q4:	3
161	15	Q2:	1
162	21	Q1:	2	93	13
163	22	Q1:	2
164	20	Q2:	1	152
165	35	Q3:	1
166	34	Q3:	3	12
167	26	Q3:	2	84
168	26	Q3:	0	73	127	11
169	40	Q0:	3	123
170	26	Q0:	3
171	29	Q1:	0
172	39	Q2:	3	152	24
173	39	Q3:	2
174	31	Q3:	0	38
175	20	Q0:	3	97	121
176	11	Q0:	2
177	16	Q3:	3
178	39	Q0:	2
179	33	Q0:	0
180	39	Q1:	2
181	21	Q2:	0	167
182	13	Q4:	0
183	35	Q3:	1	158
184	9	Q4:	0
185	32	Q1:	3
186	39	Q3:	0	165
187	39	Q1:	0	63
188	22	Q3:	1	17
189	26	Q1:	0
190	39	Q1:	0	130
191	27	Q2:	3	74
192	15	Q3:	1
193	13	Q3:	0	14
194	34	Q2:	1
195	29	Q0:	0	186	76
196	20	Q0:	1	88
197	29	Q2:	0	14
198	38	Q1:	2	13
199	11	Q4:	0
200	37	Q2:	0
201	28	Q3:	0	9
202	14	Q0:	1
203	10	Q1:	0	20
204	20	Q3:	2	176
205	36	Q0:	3
206	25	Q4:	0	197	88
207	20	Q3:	1
208	32	Q0:	0	67
209	17	Q0:	3
210	13	Q4:	0	68
211	24	Q2:	1
212	30	Q0:	1
213	24	Q4:	0
214	16	Q2:	0
215	21	Q0:	1
216	35	Q1:	3	164
217	32	Q0:	1	109
218	21	Q0:	2
219	37	Q3:	0	58
220	26	Q0:	2	77
221	12	Q0:	2	39	88
222	33	Q0:	2	108
223	11	Q1:	3	116	118	70
224	28	Q3:	1
225	12	Q2:	1
226	28	Q2:	1	111	84	80	6
227	22	Q0:	1
228	25	Q3:	1	173	180
229	18	Q0:	1	223
230	19	Q0:	0	60
231	13	Q4:	3
232	28	Q2:	1	126	49
233	21	Q1:	0
234	11	Q3:	3	105
235	38	Q1:	2
236	12	Q3:	2	48
237	23	Q3:	1	227	129	121
238	28	Q3:	1
239	34	Q0:	3
240	21	Q3:	2	201	90
241	29	Q2:	1	135	9
242	27	Q3:	1	68	89	116	219
243	17	Q4:	2	200
244	18	Q3:	1	6
245	18	Q0:	2	135
246	19	Q0:	3
247	9	Q1:	0	230
248	26	Q3:	2
249	18	Q2:	3
250	10	Q2:	0	225	18	204	86
251	39	Q0:	0
252	11	Q3:	1	245	190
253	35	Q2:	3
254	26	Q4:	0	31	194	236
255	29	Q3:	0	232
256	9	Q3:	0	45	140
257	27	Q1:	2	87	44
258	40	Q2:	1
259	10	Q3:	1	209
260	11	Q3:	3
261	15	Q2:	1	124	7
262	31	Q1:	2	143	138
263	25	Q0:	2	118
264	17	Q3:	3
265	26	Q0:	2	221
266	15	Q0:	2
267	23	Q4:	3	103
268	11	Q1:	0	151
269	10	Q0:	0	262	211	197
270	29	Q3:	3	14	90
271	36	Q0:	0	74
272	26	Q0:	1	12
273	25	Q1:	0	18
274	19	Q1:	3	87
275	19	Q1:	2	264
276	40	Q3:	0	92
277	14	Q4:	3	272	101
278	32	Q0:	2	97	37
279	37	Q4:	0	98	23	262
280	33	Q0:	0	167	28
281	9	Q3:	3
282	25	Q1:	2
283	16	Q1:	2	89
284	21	Q4:	0	190	248
285	30	Q1:	2	20	17	103	281
286	30	Q1:	0	170
287	38	Q4:	2	128
288	26	Q3:	1	30
289	9	Q3:	3
290	21	Q4:	0	233
291	25	Q0:	3
292	40	Q1:	0	156	231
293	40	Q2:	3
294	14	Q3:	3	125	15
295	23	Q4:	2	271
296	12	Q0:	2
297	30	Q1:	2
298	14	Q0:	2	181
299	14	Q3:	0	135
300	23	Q3:	2
301	12	Q4:	0	10
302	16	Q2:	1
303	31	Q0:	3
304	36	Q3:	1
305	22	Q3:	1	5	189	82	249
306	31	Q0:	0	263	81	168	139
307	24	Q4:	0
308	19	Q2:	3	300
309	22	Q3:	3	14	1
310	19	Q2:	0
311	25	Q4:	0	302	162
312	19	Q0:	3	235
313	17	Q4:	3	183	161
314	30	Q4:	2
315	32	Q4:	3	143
316	17	Q1:	2
317	23	Q2:	1
318	24	Q0:	1	232	282
319	10	Q1:	0
320	22	Q0:	2	197	28	223
321	33	Q0:	0	131
322	11	Q2:	1	105	37
323	14	Q1:	3	228	170
324	31	Q4:	0
325	40	Q2:	3	195
326	10	Q1:	2	102	204	4
327	25	Q3:	3	268
328	37	Q3:	1	67
329	34	Q2:	3
330	13	Q4:	3	177	206
331	11	Q0:	2
332	25	Q2:	1
333	30	Q1:	0	16
334	21	Q3:	2	250
335	22	Q3:	3	213
336	24	Q0:	0
337	20	Q3:	1
338	33	Q0:	0
339	10	Q3:	0	151
340	22	Q1:	2
341	34	Q3:	0	164
342	17	Q1:	2
343	33	Q4:	0	117
344	22	Q1:	2
345	27	Q4:	2
346	30	Q0:	0	298
347	21	Q0:	0
348	28	Q1:	3	293
349	22	Q4:	0	83	100
350	23	Q2:	3	98	54	101
351	31	Q4:	2	138	161	210	91	206
352	25	Q1:	2
353	20	Q2:	3
354	27	Q1:	0	169
355	10	Q1:	3	210
356	33	Q0:	2	343	177
357	38	Q3:	0
358	27	Q0:	1	3	16	173
359	30	Q1:	3
360	39	Q1:	0
361	34	Q4:	3	306	285
362	35	Q1:	2
363	28	Q0:	3	50
364	21	Q3:	0	274	132
365	15	Q0:	2	53
366	32	Q4:	2	31	134
367	19	Q1:	3	257	212
368	37	Q1:	2	354	222	287
369	15	Q1:	3	62	117
370	37	Q0:	2	351	203	87
371	11	Q3:	0	130	263	312
372	19	Q2:	0	134
373	26	Q2:	1
374	39	Q3:	0	17
375	14	Q4:	2	22	278	245
376	29	Q3:	3	225
377	38	Q3:	0
378	15	Q4:	0	225
379	19	Q1:	0
380	28	Q0:	3	107
381	15	Q4:	0	166	24	159
382	30	Q1:	2	1	42	116	226
383	21	Q3:	2	251	45
384	12	Q2:	3	317
385	37	Q4:	3	160
386	21	Q2:	3	43	71	378
387	11	Q3:	2	371
388	16	Q0:	3	206
389	39	Q2:	0	86	216	362	97
390	9	Q0:	3	152
391	36	Q0:	3	12	146
392	29	Q3:	3
393	30	Q3:	1	151
394	40	Q3:	3	328	229
395	16	Q0:	2	365	349	189	210	377	294
396	18	Q0:	1	352	356
397	26	Q3:	1	211	143	243	331
398	12	Q0:	3	163	14
399	17	Q4:	0	7
400	32	Q3:	2	155	44	297	116
401	16	Q1:	0	127	312	13
402	34	Q2:	3
403	34	Q4:	3
404	33	Q3:	0	250	106
405	19	Q2:	3	277	171	125	3
406	13	Q4:	2
407	20	Q3:	0	27	63
408	31	Q0:	1	13	332
409	21	Q2:	0	327	122	325
410	39	Q1:	2	237
411	23	Q4:	2	21	312
412	36	Q3:	2
413	9	Q2:	1	296
414	34	Q3:	0	89	146
415	10	Q1:	2
416	38	Q2:	1
417	35	Q0:	2	225
418	17	Q1:	0
419	33	Q0:	3	223
420	26	Q1:	2	16	418	126
421	39	Q2:	3
422	11	Q0:	3
423	21	Q3:	1	52
424	36	Q3:	2	242	244
425	24	Q4:	3	112
426	9	Q0:	2	122
427	37	Q4:	0	194	61
428	37	Q4:	2	266	177	19
429	20	Q3:	0
430	28	Q1:	3	248	74
431	24	Q0:	2	423	227	148	6
432	37	Q3:	1	12	300
433	9	Q1:	2
434	32	Q0:	1	9	5	49	323	75
435	20	Q0:	2	161	130
436	14	Q0:	0	353
437	32	Q1:	3	360
438	26	Q4:	3	380	308	356
439	36	Q3:	0	47	421	331	216	400	256
440	39	Q0:	3	283	367
441	9	Q1:	2
442	22	Q2:	3	90	113
443	11	Q3:	1
444	39	Q2:	1	62
445	11	Q3:	3
446	38	Q4:	3	212	247
447	35	Q1:	2	15
448	24	Q0:	0	35
449	33	Q3:	1	194
450	16	Q3:	1	277
451	38	Q4:	2	104	394
452	28	Q3:	0	198
453	36	Q3:	2	211	439	413
454	20	Q0:	2	428	316
455	38	Q2:	1	371	441	436
456	39	Q1:	3	432	246	79	222
457	19	Q2:	1	345
458	31	Q3:	2	61
459	13	Q1:	3	214	355	104	220
460	37	Q1:	2	422	439
461	28	Q0:	0	218	149
462	31	Q2:	1	38	335
463	19	Q0:	1	22
464	11	Q2:	1	381	240
465	20	Q1:	0	320	46	214	146	356	345
466	35	Q0:	0
467	36	Q0:	0	130	315
468	33	Q3:	0	61	70
469	34	Q2:	0	353	153	321
470	23	Q0:	1	197	362	395
471	9	Q4:	2	457	417
472	23	Q0:	0	332	277	240	269	347
473	9	Q3:	2	12
474	37	Q3:	0	80
475	16	Q0:	2	314	228	438	234	131	83
476	15	Q2:	0
477	17	Q0:	2
478	38	Q1:	2	44	21	17
479	15	Q0:	1	413
480	26	Q3:	3	126	412
481	37	Q2:	1	214	433
482	25	Q3:	0	335	192	348
483	38	Q1:	2
484	10	Q1:	2
485	25	Q0:	3	384	315	470
486	21	Q4:	2	157	142
487	29	Q2:	0	447	252
488	34	Q1:	2	298	57	377
489	29	Q1:	2	36	351	196	267	395
490	27	Q1:	2	261
491	14	Q3:	2
492	39	Q2:	0	275	477	115
493	20	Q0:	0	278	411
494	26	Q2:	1	276	228
495	28	Q1:	0	107	417
496	21	Q3:	2	394
497	34	Q2:	1	311	439
498	37	Q4:	2	337
499	23	Q3:	3	152	309	76
500	9	Q0:	2	67
========================================================== 